p cnf 211 536
-1 10 0 
1 210 0 
-97 -98 12 0 
-97 98 105 0 
-98 99 0 
-98 45 0 
-99 100 0 
-99 43 0 
-100 101 0 
-100 41 0 
-101 102 0 
-101 39 0 
-102 103 0 
-102 37 0 
-103 104 0 
-103 35 0 
-104 55 0 
-104 96 0 
-105 -106 56 0 
-105 106 113 0 
-106 107 0 
-106 45 0 
-10 -11 12 0 
-10 11 14 0 
-107 108 0 
-107 43 0 
-108 109 0 
-108 41 0 
-109 110 0 
-109 39 0 
-110 111 0 
-110 37 0 
-111 112 0 
-111 30 0 
-112 36 0 
-113 -114 20 0 
-113 114 120 0 
-114 115 0 
-114 45 0 
-115 116 0 
-115 43 0 
-116 117 0 
-116 41 0 
-11 8 0 
-117 118 0 
-117 39 0 
-118 119 0 
-118 37 0 
-119 112 0 
-119 54 0 
-120 -121 20 0 
-120 121 127 0 
-121 122 0 
-121 45 0 
-122 123 0 
-122 43 0 
-123 124 0 
-123 41 0 
-124 125 0 
-124 39 0 
-125 126 0 
-125 37 0 
-126 112 0 
-126 95 0 
-127 -128 20 0 
-127 128 134 0 
-128 129 0 
-128 45 0 
-129 130 0 
-129 43 0 
-130 131 0 
-130 41 0 
-131 132 0 
-131 39 0 
-132 133 0 
-132 37 0 
-133 104 0 
-133 112 0 
-134 -135 20 0 
-134 135 141 0 
-135 136 0 
-135 45 0 
-136 137 0 
-136 43 0 
-12 -13 0 
-137 138 0 
-137 41 0 
-138 139 0 
-138 39 0 
-139 140 0 
-139 29 0 
-140 38 0 
-141 -142 20 0 
-141 142 147 0 
-142 143 0 
-142 45 0 
-143 144 0 
-143 43 0 
-144 145 0 
-144 41 0 
-145 146 0 
-145 39 0 
-146 140 0 
-146 53 0 
-147 -148 20 0 
-147 148 153 0 
-148 149 0 
-148 45 0 
-149 150 0 
-149 43 0 
-150 151 0 
-150 41 0 
-151 152 0 
-151 28 0 
-152 40 0 
-153 -154 158 0 
-153 154 190 0 
-154 155 0 
-154 45 0 
-155 156 0 
-155 43 0 
-156 157 0 
-156 41 0 
-157 152 0 
-157 52 0 
-158 -159 20 0 
-158 159 12 0 
-159 160 0 
-159 187 0 
-160 161 0 
-160 184 0 
-161 162 0 
-161 181 0 
-162 163 0 
-162 178 0 
-163 164 0 
-163 175 0 
-164 165 0 
-164 172 0 
-165 166 0 
-165 169 0 
-166 -167 168 0 
-166 -168 167 0 
-14 -15 17 0 
-14 15 210 0 
-169 -170 171 0 
-169 -171 170 0 
-172 -173 174 0 
-172 -174 173 0 
-175 -176 177 0 
-175 -177 176 0 
-15 16 0 
-15 2 0 
-178 -179 180 0 
-178 -180 179 0 
-181 -182 183 0 
-181 -183 182 0 
-184 -185 186 0 
-184 -186 185 0 
-16 4 0 
-187 -188 189 0 
-187 -189 188 0 
-190 -191 12 0 
-190 191 195 0 
-191 192 0 
-191 45 0 
-192 193 0 
-192 43 0 
-193 194 0 
-193 41 0 
-194 152 0 
-194 93 0 
-195 -196 12 0 
-195 196 200 0 
-196 197 0 
-196 45 0 
-1 2 6 0 
-17 -18 20 0 
-17 18 21 0 
-197 198 0 
-197 43 0 
-198 199 0 
-198 41 0 
-199 102 0 
-199 152 0 
-200 -201 20 0 
-200 201 205 0 
-201 202 0 
-201 45 0 
-202 203 0 
-202 43 0 
-203 204 0 
-203 41 0 
-204 110 0 
-204 152 0 
-205 -206 20 0 
-205 206 12 0 
-206 207 0 
-206 45 0 
-18 -19 0 
-207 208 0 
-207 43 0 
-208 209 0 
-208 41 0 
-209 118 0 
-209 152 0 
-210 -13 211 0 
-210 -211 13 0 
-20 13 0 
-21 -22 23 0 
-21 22 12 0 
-22 19 0 
-23 -24 20 0 
-23 24 47 0 
-24 25 0 
-24 45 0 
-25 26 0 
-25 43 0 
-26 27 0 
-26 41 0 
-2 -3 0 
-27 28 0 
-27 39 0 
-28 29 0 
-28 37 0 
-29 30 0 
-29 35 0 
-30 31 0 
-30 33 0 
-31 -32 0 
-33 -34 0 
-35 -36 0 
-3 -4 5 0 
-3 -5 4 0 
-37 -38 0 
-39 -40 0 
-41 -42 0 
-43 -44 0 
-45 -46 0 
-47 -48 56 0 
-47 48 88 0 
-48 45 0 
-48 49 0 
-49 43 0 
-49 50 0 
-50 41 0 
-50 51 0 
-51 39 0 
-51 52 0 
-52 37 0 
-52 53 0 
-53 35 0 
-53 54 0 
-54 33 0 
-54 55 0 
-55 32 0 
-56 -57 20 0 
-56 57 12 0 
-57 58 0 
-57 85 0 
-58 59 0 
-58 82 0 
-59 60 0 
-59 79 0 
-60 61 0 
-60 76 0 
-61 62 0 
-61 73 0 
-62 63 0 
-62 70 0 
-63 64 0 
-63 67 0 
-64 -65 66 0 
-64 -66 65 0 
-6 -7 0 
-67 -68 69 0 
-67 -69 68 0 
-70 -71 72 0 
-70 -72 71 0 
-73 -74 75 0 
-73 -75 74 0 
-76 -77 78 0 
-76 -78 77 0 
-7 -9 8 0 
-7 -8 9 0 
-79 -80 81 0 
-79 -81 80 0 
-82 -83 84 0 
-82 -84 83 0 
-85 -86 87 0 
-85 -87 86 0 
-88 -89 20 0 
-88 89 97 0 
-89 45 0 
-89 90 0 
-90 43 0 
-90 91 0 
-91 41 0 
-91 92 0 
-92 39 0 
-92 93 0 
-93 37 0 
-93 94 0 
-94 35 0 
-94 95 0 
-95 31 0 
-95 96 0 
-96 34 0 
97 -98 -12 0 
97 -12 -105 0 
97 98 -105 0 
98 -99 -45 0 
99 -100 -43 0 
100 -101 -41 0 
101 -102 -39 0 
102 -103 -37 0 
103 -104 -35 0 
104 -55 -96 0 
105 -106 -56 0 
105 -56 -113 0 
105 106 -113 0 
106 -107 -45 0 
10 -11 -12 0 
10 -12 -14 0 
10 11 -14 0 
107 -108 -43 0 
108 -109 -41 0 
109 -110 -39 0 
110 -111 -37 0 
111 -30 -112 0 
112 -36 0 
113 -114 -20 0 
113 -20 -120 0 
113 114 -120 0 
114 -115 -45 0 
115 -116 -43 0 
116 -117 -41 0 
11 -8 0 
117 -118 -39 0 
118 -119 -37 0 
119 -54 -112 0 
120 -121 -20 0 
120 -20 -127 0 
120 121 -127 0 
121 -122 -45 0 
122 -123 -43 0 
123 -124 -41 0 
124 -125 -39 0 
125 -126 -37 0 
126 -95 -112 0 
127 -128 -20 0 
127 -20 -134 0 
127 128 -134 0 
128 -129 -45 0 
129 -130 -43 0 
130 -131 -41 0 
131 -132 -39 0 
132 -133 -37 0 
133 -104 -112 0 
134 -135 -20 0 
134 -20 -141 0 
134 135 -141 0 
135 -136 -45 0 
136 -137 -43 0 
12 13 0 
137 -138 -41 0 
138 -139 -39 0 
139 -29 -140 0 
140 -38 0 
141 -142 -20 0 
141 -20 -147 0 
141 142 -147 0 
142 -143 -45 0 
143 -144 -43 0 
144 -145 -41 0 
145 -146 -39 0 
146 -53 -140 0 
147 -148 -20 0 
147 -20 -153 0 
147 148 -153 0 
148 -149 -45 0 
149 -150 -43 0 
150 -151 -41 0 
151 -28 -152 0 
152 -40 0 
153 -154 -158 0 
153 -158 -190 0 
153 154 -190 0 
154 -155 -45 0 
155 -156 -43 0 
156 -157 -41 0 
157 -52 -152 0 
158 -159 -20 0 
158 -20 -12 0 
158 159 -12 0 
159 -160 -187 0 
160 -161 -184 0 
161 -162 -181 0 
162 -163 -178 0 
163 -164 -175 0 
164 -165 -172 0 
165 -166 -169 0 
166 -167 -168 0 
166 167 168 0 
14 -15 -17 0 
14 -17 -210 0 
14 15 -210 0 
169 -170 -171 0 
169 170 171 0 
172 -173 -174 0 
172 173 174 0 
175 -176 -177 0 
175 176 177 0 
15 -2 -16 0 
178 -179 -180 0 
178 179 180 0 
181 -182 -183 0 
181 182 183 0 
184 -185 -186 0 
184 185 186 0 
16 -4 0 
187 -188 -189 0 
187 188 189 0 
190 -12 -195 0 
190 -191 -12 0 
190 191 -195 0 
191 -192 -45 0 
192 -193 -43 0 
193 -194 -41 0 
194 -93 -152 0 
195 -12 -200 0 
195 -196 -12 0 
195 196 -200 0 
196 -197 -45 0 
1 -2 0 
1 -6 0 
17 -18 -20 0 
17 -20 -21 0 
17 18 -21 0 
197 -198 -43 0 
198 -199 -41 0 
199 -102 -152 0 
200 -201 -20 0 
200 -20 -205 0 
200 201 -205 0 
201 -202 -45 0 
202 -203 -43 0 
203 -204 -41 0 
204 -110 -152 0 
205 -206 -20 0 
205 -20 -12 0 
205 206 -12 0 
206 -207 -45 0 
18 19 0 
207 -208 -43 0 
208 -209 -41 0 
209 -118 -152 0 
210 -13 -211 0 
210 13 211 0 
20 -13 0 
21 -22 -23 0 
21 -23 -12 0 
21 22 -12 0 
22 -19 0 
23 -20 -47 0 
23 -24 -20 0 
23 24 -47 0 
24 -25 -45 0 
25 -26 -43 0 
26 -27 -41 0 
2 3 0 
27 -28 -39 0 
28 -29 -37 0 
29 -30 -35 0 
30 -31 -33 0 
31 32 0 
33 34 0 
35 36 0 
3 -4 -5 0 
3 4 5 0 
37 38 0 
39 40 0 
41 42 0 
43 44 0 
45 46 0 
47 -48 -56 0 
47 -56 -88 0 
47 48 -88 0 
48 -49 -45 0 
49 -50 -43 0 
50 -51 -41 0 
51 -52 -39 0 
52 -53 -37 0 
53 -54 -35 0 
54 -55 -33 0 
55 -32 0 
56 -20 -12 0 
56 -57 -20 0 
56 57 -12 0 
57 -58 -85 0 
58 -59 -82 0 
59 -60 -79 0 
60 -61 -76 0 
61 -62 -73 0 
62 -63 -70 0 
63 -64 -67 0 
64 -65 -66 0 
64 65 66 0 
6 7 0 
67 -68 -69 0 
67 68 69 0 
70 -71 -72 0 
70 71 72 0 
73 -74 -75 0 
73 74 75 0 
76 -77 -78 0 
76 77 78 0 
7 -8 -9 0 
7 8 9 0 
79 -80 -81 0 
79 80 81 0 
82 -83 -84 0 
82 83 84 0 
85 -86 -87 0 
85 86 87 0 
88 -20 -97 0 
88 -89 -20 0 
88 89 -97 0 
89 -90 -45 0 
90 -91 -43 0 
91 -92 -41 0 
92 -93 -39 0 
93 -94 -37 0 
94 -95 -35 0 
95 -31 -96 0 
96 -34 0 
